10 45
1 2 26
1 3 14
1 4 23
1 5 5
1 6 1
1 7 8
1 8 23
1 9 8
1 10 18
2 3 9
2 4 26
2 5 28
2 6 7
2 7 13
2 8 23
2 9 23
2 10 25
3 4 8
3 5 4
3 6 18
3 7 12
3 8 6
3 9 10
3 10 20
4 5 3
4 6 0
4 7 23
4 8 21
4 9 21
4 10 9
5 6 6
5 7 29
5 8 6
5 9 24
5 10 2
6 7 14
6 8 21
6 9 8
6 10 17
7 8 2
7 9 26
7 10 23
8 9 0
8 10 8
9 10 19
